certificates/rado_a10_c76_N25.drat
6 9 -24 -25 0
9 -24 -25 0
d 6 9 -24 -25 0
-24 -25 0
d 9 -24 -25 0
-22 24 0
-25 0
9 24 0
4 10 0
d 7 4 10 0
24 0
10 0
-9 0
23 0
11 0
6 0
-7 0
-22 0
-8 0
1 0
13 0
19 0
14 0
3 0
2 0
21 0
15 0
16 0
18 0
0
